data/instances/vrp_files/train_70.vrp
NAME : 70
COMMENT : Generated instance No. 70
TYPE : CVRP
DIMENSION : 21
EDGE_WEIGHT_TYPE : EUC_2D
CAPACITY : 30
NODE_COORD_SECTION
 1 663 965
 2 102 125
 3 979 673
 4 846 324
 5 676 594
 6 603 682
 7 575 429
 8 275 768
 9 226 692
 10 233 625
 11 747 218
 12 59 130
 13 605 849
 14 44 734
 15 341 478
 16 928 331
 17 465 13
 18 81 258
 19 27 631
 20 426 548
 21 174 295
DEMAND_SECTION
1 0
2 5
3 4
4 7
5 8
6 5
7 10
8 5
9 2
10 8
11 2
12 10
13 6
14 8
15 6
16 4
17 4
18 6
19 4
20 8
21 9
DEPOT_SECTION
 1
 -1
EOF